c User generated cnf file
p cnf 13 30
13 -8 13 0 
12 -6 13 0 
6 -11 9 0 
9 13 -9 0 
4 -8 1 0 
11 -6 7 0 
9 2 -2 0 
9 -12 11 0 
9 -6 5 0 
3 4 -5 0 
9 6 -12 0 
5 -8 2 0 
3 -11 2 0 
11 3 -3 0 
12 -5 3 0 
4 9 -7 0 
10 -10 8 0 
11 -4 9 0 
6 13 -4 0 
11 13 -1 0 
11 -2 7 0 
9 -13 2 0 
2 3 -2 0 
4 -12 6 0 
7 10 -5 0 
8 -2 13 0 
1 3 -8 0 
12 -9 1 0 
11 -11 3 0 
13 -13 3 0 
